CLP/out/Inst07.txt
[[0, 57, 1, 23, 5, 24, 4, 25, 3, 16, 15, 21, 7, 26, 2, 18, 10, 20, 8, 22, 6, 19, 9, 14, 13, 12, 17, 11, 31, 0],[0, 63, 27, 41, 38, 47, 37, 48, 35, 54, 32, 58, 30, 60, 29, 62, 0],[0, 71, 33, 51, 52, 50, 53, 49, 55, 45, 56, 44, 64, 43, 65, 42, 66, 39, 67, 36, 69, 34, 70, 0],[0, 68, 28, 46, 59, 40, 61, 0],[],[],[],[],[],[],[],[],[],[],[],[],[],[],[],[]]

Total distance = 5228
