MIP/out/inst07.out
['savings-mzt.py', 'inst07.png']
Heuristic solution: [[59, 61, 49, 7, 43, 68, 12, 26, 23, 1, 64, 47, 41, 17, 51, 50, 57, 24, 63, 5, 28, 46, 53, 52], [21, 55, 4, 29, 13, 37, 58, 11, 6, 33, 65, 10, 20, 18, 31, 27, 60, 70, 36, 71, 2, 38, 39, 35], [14, 67, 25, 32, 62, 8, 34, 44, 22, 54, 56, 16, 3, 45, 15, 69, 40], [66, 30, 9, 19, 42, 48]]
Heuristic val: 1512.0
4 <= 4 <= 20
296 <= 300
293 <= 300
248 <= 300
91 <= 300
Set parameter Username
Academic license - for non-commercial use only - expires 2023-07-23
Set parameter TimeLimit to value 300
Waiting for optimizer...
Gurobi Optimizer version 9.5.2 build v9.5.2rc0 (linux64)
Thread count: 2 physical cores, 4 logical processors, using up to 4 threads
Optimize a model with 27075 rows, 21091 columns and 190363 nonzeros
Model fingerprint: 0xeb3e7204
Variable types: 71 continuous, 21020 integer (21020 binary)
Coefficient statistics:
  Matrix range     [1e+00, 4e+03]
  Objective range  [1e+00, 2e+02]
  Bounds range     [1e+00, 4e+03]
  RHS range        [1e+00, 4e+03]

Warning: Completing partial solution with 20945 unfixed non-continuous variables out of 21020
User MIP start produced solution with objective 543 (0.06s)
Loaded user MIP start with objective 543

Presolve removed 3988 rows and 288 columns
Presolve time: 0.47s
Presolved: 23087 rows, 20803 columns, 121907 nonzeros
Variable types: 71 continuous, 20732 integer (20732 binary)

Deterministic concurrent LP optimizer: primal and dual simplex
Showing first log only...


Use crossover to convert LP symmetric solution to basic solution...
Concurrent spin time: 0.00s

Solved with dual simplex

Root relaxation: objective 2.425000e+02, 1033 iterations, 0.17 seconds (0.10 work units)

    Nodes    |    Current Node    |     Objective Bounds      |     Work
 Expl Unexpl |  Obj  Depth IntInf | Incumbent    BestBd   Gap | It/Node Time

     0     0  242.50000    0  156  543.00000  242.50000  55.3%     -    1s
     0     0  251.50000    0  238  543.00000  251.50000  53.7%     -    1s
H    0     0                     478.0000000  251.50000  47.4%     -    4s
     0     0  251.50000    0  231  478.00000  251.50000  47.4%     -    4s
     0     0  255.00000    0  246  478.00000  255.00000  46.7%     -    4s
     0     0  255.00000    0  266  478.00000  255.00000  46.7%     -    5s
     0     0  255.50000    0  229  478.00000  255.50000  46.5%     -    5s
     0     0  255.50000    0  224  478.00000  255.50000  46.5%     -    5s
     0     0  255.83333    0  241  478.00000  255.83333  46.5%     -    6s
     0     0  255.83333    0  253  478.00000  255.83333  46.5%     -    6s
     0     0  256.50000    0  315  478.00000  256.50000  46.3%     -    7s
     0     0  256.72222    0  328  478.00000  256.72222  46.3%     -    7s
     0     0  256.75000    0  312  478.00000  256.75000  46.3%     -    7s
     0     0  256.75000    0  320  478.00000  256.75000  46.3%     -    7s
     0     0  256.77778    0  338  478.00000  256.77778  46.3%     -    7s
H    0     0                     474.0000000  256.77778  45.8%     -    8s
     0     0  256.77778    0  341  474.00000  256.77778  45.8%     -    8s
     0     0  256.96000    0  343  474.00000  256.96000  45.8%     -    8s
     0     0  257.02286    0  430  474.00000  257.02286  45.8%     -    8s
     0     0  257.07692    0  425  474.00000  257.07692  45.8%     -    9s
     0     0  257.07692    0  481  474.00000  257.07692  45.8%     -    9s
     0     0  257.16000    0  449  474.00000  257.16000  45.7%     -    9s
     0     0  257.17808    0  454  474.00000  257.17808  45.7%     -    9s
     0     0  257.26168    0  450  474.00000  257.26168  45.7%     -    9s
     0     0  257.36667    0  458  474.00000  257.36667  45.7%     -   10s
     0     0  257.36667    0  436  474.00000  257.36667  45.7%     -   10s
     0     0  257.36667    0  460  474.00000  257.36667  45.7%     -   10s
     0     0  257.36667    0  433  474.00000  257.36667  45.7%     -   10s
     0     0  257.36667    0  444  474.00000  257.36667  45.7%     -   11s
     0     0  257.79096    0  515  474.00000  257.79096  45.6%     -   11s
     0     0  257.83333    0  499  474.00000  257.83333  45.6%     -   11s
     0     0  257.83333    0  473  474.00000  257.83333  45.6%     -   12s
     0     0  258.08333    0  408  474.00000  258.08333  45.6%     -   12s
     0     0  258.43360    0  466  474.00000  258.43360  45.5%     -   13s
     0     0  258.84842    0  486  474.00000  258.84842  45.4%     -   13s
     0     0  258.96622    0  467  474.00000  258.96622  45.4%     -   13s
     0     0  259.07660    0  494  474.00000  259.07660  45.3%     -   13s
     0     0  259.08550    0  509  474.00000  259.08550  45.3%     -   13s
     0     0  259.08550    0  525  474.00000  259.08550  45.3%     -   13s
     0     0  259.55666    0  545  474.00000  259.55666  45.2%     -   14s
H    0     0                     465.0000000  259.55666  44.2%     -   14s
     0     0  259.86631    0  571  465.00000  259.86631  44.1%     -   14s
     0     0  260.04360    0  603  465.00000  260.04360  44.1%     -   14s
     0     0  260.07156    0  580  465.00000  260.07156  44.1%     -   14s
     0     0  260.11112    0  578  465.00000  260.11112  44.1%     -   14s
     0     0  260.15026    0  604  465.00000  260.15026  44.1%     -   15s
     0     0  260.16798    0  615  465.00000  260.16798  44.0%     -   15s
     0     0  260.17110    0  613  465.00000  260.17110  44.0%     -   15s
     0     0  261.21397    0  517  465.00000  261.21397  43.8%     -   15s
     0     0  261.60641    0  559  465.00000  261.60641  43.7%     -   15s
     0     0  261.67273    0  537  465.00000  261.67273  43.7%     -   16s
     0     0  261.69076    0  554  465.00000  261.69076  43.7%     -   16s
     0     0  261.69260    0  627  465.00000  261.69260  43.7%     -   16s
     0     0  262.42431    0  582  465.00000  262.42431  43.6%     -   16s
     0     0  262.62128    0  581  465.00000  262.62128  43.5%     -   16s
     0     0  263.05163    0  619  465.00000  263.05163  43.4%     -   17s
     0     0  263.17056    0  626  465.00000  263.17056  43.4%     -   17s
     0     0  263.21652    0  610  465.00000  263.21652  43.4%     -   17s
     0     0  263.22127    0  627  465.00000  263.22127  43.4%     -   17s
     0     0  263.22489    0  632  465.00000  263.22489  43.4%     -   17s
     0     0  263.77163    0  616  465.00000  263.77163  43.3%     -   17s
     0     0  263.81309    0  657  465.00000  263.81309  43.3%     -   17s
     0     0  263.89710    0  613  465.00000  263.89710  43.2%     -   18s
     0     0  263.94823    0  629  465.00000  263.94823  43.2%     -   18s
     0     0  263.96631    0  648  465.00000  263.96631  43.2%     -   18s
     0     0  263.97008    0  669  465.00000  263.97008  43.2%     -   18s
     0     0  264.11349    0  660  465.00000  264.11349  43.2%     -   18s
     0     0  264.18376    0  694  465.00000  264.18376  43.2%     -   19s
     0     0  264.19080    0  650  465.00000  264.19080  43.2%     -   19s
     0     0  264.19080    0  630  465.00000  264.19080  43.2%     -   19s
     0     0  264.30197    0  714  465.00000  264.30197  43.2%     -   19s
     0     0  264.30505    0  658  465.00000  264.30505  43.2%     -   19s
     0     0  264.46230    0  646  465.00000  264.46230  43.1%     -   20s
     0     0  264.62512    0  659  465.00000  264.62512  43.1%     -   20s
     0     0  264.73643    0  666  465.00000  264.73643  43.1%     -   20s
     0     0  264.74662    0  641  465.00000  264.74662  43.1%     -   20s
     0     0  264.75044    0  658  465.00000  264.75044  43.1%     -   20s
     0     0  264.88324    0  691  465.00000  264.88324  43.0%     -   21s
H    0     0                     444.0000000  264.88324  40.3%     -   30s
     0     0  264.97051    0  694  444.00000  264.97051  40.3%     -   30s
     0     0  265.02436    0  692  444.00000  265.02436  40.3%     -   30s
     0     0  265.02523    0  701  444.00000  265.02523  40.3%     -   30s
     0     0  265.07356    0  583  444.00000  265.07356  40.3%     -   30s
     0     0  265.08275    0  622  444.00000  265.08275  40.3%     -   31s
     0     0  265.08275    0  633  444.00000  265.08275  40.3%     -   31s
     0     0  265.11845    0  646  444.00000  265.11845  40.3%     -   31s
     0     0  265.11921    0  655  444.00000  265.11921  40.3%     -   31s
     0     0  265.11921    0  668  444.00000  265.11921  40.3%     -   32s
     0     0  265.11921    0  610  444.00000  265.11921  40.3%     -   32s
     0     2  265.11921    0  601  444.00000  265.11921  40.3%     -   39s
     5     6  265.99832    2  494  444.00000  265.62950  40.2%   284   40s
    50    54  271.70496   16  245  444.00000  266.57695  40.0%   178   45s
   108   112  281.78386   25  198  444.00000  266.57695  40.0%   121   50s
H  112   112                     438.0000000  266.57695  39.1%   118   50s
   364   378  282.96598  158  200  438.00000  266.57695  39.1%  54.8   55s
   578   607  286.03897  332  185  438.00000  266.57695  39.1%  48.2   60s
   663   666  289.48256  387  144  438.00000  266.57695  39.1%  46.5   65s
H  700   703                     432.0000000  266.57695  38.3%  46.2   71s
   806   789  334.83168  115  610  432.00000  266.74262  38.3%  44.5   79s
   808   790  303.74929   72  156  432.00000  266.74262  38.3%  44.4   81s
   809   791  379.51771  227  211  432.00000  266.74262  38.3%  44.3   85s
   812   793  271.36021   14  431  432.00000  266.74262  38.3%  44.1   90s
   825   802  336.80909  167  598  432.00000  266.74262  38.3%  43.4   96s
   827   803  375.32966  148  623  432.00000  266.74262  38.3%  43.3  100s
   830   805  298.58000   77  600  432.00000  266.74262  38.3%  43.2  105s
   833   807  299.52215  375  644  432.00000  266.74262  38.3%  43.0  110s
   836   809  282.83780   88  603  432.00000  266.74262  38.3%  42.9  116s
   838   810  291.51750   26  639  432.00000  266.74262  38.3%  42.8  120s
   840   812  314.39900   53  617  432.00000  267.00000  38.2%  42.7  147s
   845   818  267.00000   11  511  432.00000  267.00000  38.2%  61.8  150s
   865   833  268.23671   16  323  432.00000  267.00000  38.2%  68.8  155s
   915   869  280.19904   28  323  432.00000  267.00000  38.2%  76.7  160s
   956   898  286.85532   37  295  432.00000  267.00000  38.2%  81.3  165s
   997   924  298.08470   45  249  432.00000  267.00000  38.2%  85.8  170s
  1033   957  297.72460   53  288  432.00000  267.00000  38.2%  88.9  175s
  1133  1006  323.97745   73  313  432.00000  267.00000  38.2%  91.1  180s
  1224  1057  351.15754  102  240  432.00000  267.00000  38.2%  95.3  185s
  1306  1097  270.07318   16  397  432.00000  267.00345  38.2%  96.1  190s
  1419  1139  294.93467   26  359  432.00000  267.00345  38.2%  95.8  196s
H 1450  1102                     427.0000000  267.00345  37.5%  97.5  217s
  1501  1190  302.19333   48  145  427.00000  267.00345  37.5%  96.4  221s
  1567  1249  307.02708   74  108  427.00000  267.00345  37.5%  94.8  225s
  1727  1303  277.70046   21  201  427.00000  267.18328  37.4%  92.8  231s
  1829  1356  288.24545   36  137  427.00000  267.18328  37.4%  92.3  235s
  1926  1368  272.19782   14  576  427.00000  267.71622  37.3%  92.8  240s
  1995  1423  326.24794   57  279  427.00000  268.02516  37.2%  93.6  245s
  2112  1484  296.10269   37  274  427.00000  268.73812  37.1%  93.1  251s
  2230  1525  277.43740   19  249  427.00000  268.73812  37.1%  93.1  257s
  2267  1561  296.01667   27  216  427.00000  268.73812  37.1%  93.8  260s
  2395  1586  423.69081   57  214  427.00000  268.95453  37.0%  94.9  266s
  2430  1652  293.54439   24  333  427.00000  268.97261  37.0%  96.1  270s
  2565  1682  270.03767   14  452  427.00000  269.04319  37.0%  96.8  277s
  2625  1718  291.89560   39  213  427.00000  269.10675  37.0%  97.8  281s
  2689  1776  274.51157   15  450  427.00000  269.10675  37.0%  98.4  285s
  2847  1863  327.90261   47  281  427.00000  269.22802  36.9%  98.8  293s
  2949  1849  291.94542   18  497  427.00000  269.23247  36.9%  98.8  300s

Cutting planes:
  Gomory: 37
  Lift-and-project: 4
  Cover: 6
  Implied bound: 39
  Projected implied bound: 28
  Clique: 276
  MIR: 20
  Flow cover: 67
  Inf proof: 2
  Zero half: 108
  RLT: 37
  Relax-and-lift: 41
  BQP: 14

Explored 2969 nodes (309902 simplex iterations) in 300.01 seconds (446.27 work units)
Thread count was 4 (of 4 available processors)

Solution count 8: 427 432 438 ... 543

Time limit reached
Best objective 4.270000000000e+02, best bound 2.700000000000e+02, gap 36.7681%
Done waiting!
MIP improvement: [[0, 49, 7, 43, 68, 12, 17, 41, 47, 64, 26, 23, 1, 50, 57, 24, 63, 5, 28, 46, 53, 52, 29, 55, 0], [0, 21, 4, 13, 59, 51, 61, 37, 58, 6, 33, 65, 10, 20, 18, 71, 2, 38, 39, 35, 36, 31, 27, 60, 70, 14, 0], [0, 67, 25, 32, 62, 44, 34, 22, 54, 56, 3, 16, 15, 45, 8, 69, 40, 0], [0, 66, 30, 11, 9, 19, 42, 48, 0]]
MIP value: 1446
The solution could be better...
